* #variable= 380 #constraint= 422 
+1 x231 -1 x21 = 0 ;
+1 x231 -1 x341 = 0 ;
-1 x21 +1 x1 >= 0 ;
-1 x21 +1 x11 >= 0 ;
+1 x21 -1 x1 -1 x11 >= -1 ;
+1 x21 +2 x31 +4 x41 +8 x51 +16 x61 +32 x71 +64 x81 +128 x91 +256 x101 +512 x111 +2 x22 +4 x32 +8 x42 +16 x52 +32 x62 +64 x72 +128 x82 +256 x92 +512 x102 +1024 x112 +4 x23 +8 x33 +16 x43 +32 x53 +64 x63 +128 x73 +256 x83 +512 x93 +1024 x103 +2048 x113 +8 x24 +16 x34 +32 x44 +64 x54 +128 x64 +256 x74 +512 x84 +1024 x94 +2048 x104 +4096 x114 +16 x25 +32 x35 +64 x45 +128 x55 +256 x65 +512 x75 +1024 x85 +2048 x95 +4096 x105 +8192 x115 +32 x26 +64 x36 +128 x46 +256 x56 +512 x66 +1024 x76 +2048 x86 +4096 x96 +8192 x106 +16384 x116 +64 x27 +128 x37 +256 x47 +512 x57 +1024 x67 +2048 x77 +4096 x87 +8192 x97 +16384 x107 +32768 x117 +128 x28 +256 x38 +512 x48 +1024 x58 +2048 x68 +4096 x78 +8192 x88 +16384 x98 +32768 x108 +65536 x118 +256 x29 +512 x39 +1024 x49 +2048 x59 +4096 x69 +8192 x79 +16384 x89 +32768 x99 +65536 x109 +131072 x119 +512 x30 +1024 x40 +2048 x50 +4096 x60 +8192 x70 +16384 x80 +32768 x90 +65536 x100 +131072 x110 +262144 x120 -1 x361 -2 x362 -4 x363 -8 x364 -16 x365 -32 x366 -64 x367 -128 x368 -256 x369 -512 x370 -1024 x371 -2048 x372 -4096 x373 -8192 x374 -16384 x375 -32768 x376 -65536 x377 -131072 x378 -262144 x379 -524288 x380 = 0; 
+1 x361 -1 x341 +2 x362 -2 x342 +4 x363 -4 x343 +8 x364 -8 x344 +16 x365 -16 x345 +32 x366 -32 x346 +64 x367 -64 x347 +128 x368 -128 x348 +256 x369 -256 x349 +512 x370 -512 x350 +1024 x371 -1024 x351 +2048 x372 -2048 x352 +4096 x373 -4096 x353 +8192 x374 -8192 x354 +16384 x375 -16384 x355 +32768 x376 -32768 x356 +65536 x377 -65536 x357 +131072 x378 -131072 x358 +262144 x379 -262144 x359 +524288 x380 -524288 x360 >= 1 ;
+1 x242 -1 x31 = 0 ;
+2 x122 +1 x232 -1 x22 -1 x242 = 0 ;
+1 x232 -1 x342 = 0 ;
-1 x31 +1 x2 >= 0 ;
-1 x31 +1 x11 >= 0 ;
+1 x31 -1 x2 -1 x11 >= -1 ;
-1 x22 +1 x1 >= 0 ;
-1 x22 +1 x12 >= 0 ;
+1 x22 -1 x1 -1 x12 >= -1 ;
+1 x253 -1 x41 = 0 ;
+2 x133 +1 x243 -1 x32 -1 x122 -1 x253 = 0 ;
+2 x123 +1 x233 -1 x23 -1 x243 = 0 ;
+1 x233 -1 x343 = 0 ;
-1 x41 +1 x3 >= 0 ;
-1 x41 +1 x11 >= 0 ;
+1 x41 -1 x3 -1 x11 >= -1 ;
-1 x32 +1 x2 >= 0 ;
-1 x32 +1 x12 >= 0 ;
+1 x32 -1 x2 -1 x12 >= -1 ;
-1 x23 +1 x1 >= 0 ;
-1 x23 +1 x13 >= 0 ;
+1 x23 -1 x1 -1 x13 >= -1 ;
+1 x264 -1 x51 = 0 ;
+2 x144 +1 x254 -1 x42 -1 x133 -1 x264 = 0 ;
+2 x134 +1 x244 -1 x33 -1 x123 -1 x254 = 0 ;
+2 x124 +1 x234 -1 x24 -1 x244 = 0 ;
+1 x234 -1 x344 = 0 ;
-1 x51 +1 x4 >= 0 ;
-1 x51 +1 x11 >= 0 ;
+1 x51 -1 x4 -1 x11 >= -1 ;
-1 x42 +1 x3 >= 0 ;
-1 x42 +1 x12 >= 0 ;
+1 x42 -1 x3 -1 x12 >= -1 ;
-1 x33 +1 x2 >= 0 ;
-1 x33 +1 x13 >= 0 ;
+1 x33 -1 x2 -1 x13 >= -1 ;
-1 x24 +1 x1 >= 0 ;
-1 x24 +1 x14 >= 0 ;
+1 x24 -1 x1 -1 x14 >= -1 ;
+1 x275 -1 x61 = 0 ;
+2 x155 +1 x265 -1 x52 -1 x144 -1 x275 = 0 ;
+2 x145 +1 x255 -1 x43 -1 x134 -1 x265 = 0 ;
+2 x135 +1 x245 -1 x34 -1 x124 -1 x255 = 0 ;
+2 x125 +1 x235 -1 x25 -1 x245 = 0 ;
+1 x235 -1 x345 = 0 ;
-1 x61 +1 x5 >= 0 ;
-1 x61 +1 x11 >= 0 ;
+1 x61 -1 x5 -1 x11 >= -1 ;
-1 x52 +1 x4 >= 0 ;
-1 x52 +1 x12 >= 0 ;
+1 x52 -1 x4 -1 x12 >= -1 ;
-1 x43 +1 x3 >= 0 ;
-1 x43 +1 x13 >= 0 ;
+1 x43 -1 x3 -1 x13 >= -1 ;
-1 x34 +1 x2 >= 0 ;
-1 x34 +1 x14 >= 0 ;
+1 x34 -1 x2 -1 x14 >= -1 ;
-1 x25 +1 x1 >= 0 ;
-1 x25 +1 x15 >= 0 ;
+1 x25 -1 x1 -1 x15 >= -1 ;
+1 x286 -1 x71 = 0 ;
+2 x166 +1 x276 -1 x62 -1 x155 -1 x286 = 0 ;
+2 x156 +1 x266 -1 x53 -1 x145 -1 x276 = 0 ;
+2 x146 +1 x256 -1 x44 -1 x135 -1 x266 = 0 ;
+2 x136 +1 x246 -1 x35 -1 x125 -1 x256 = 0 ;
+2 x126 +1 x236 -1 x26 -1 x246 = 0 ;
+1 x236 -1 x346 = 0 ;
-1 x71 +1 x6 >= 0 ;
-1 x71 +1 x11 >= 0 ;
+1 x71 -1 x6 -1 x11 >= -1 ;
-1 x62 +1 x5 >= 0 ;
-1 x62 +1 x12 >= 0 ;
+1 x62 -1 x5 -1 x12 >= -1 ;
-1 x53 +1 x4 >= 0 ;
-1 x53 +1 x13 >= 0 ;
+1 x53 -1 x4 -1 x13 >= -1 ;
-1 x44 +1 x3 >= 0 ;
-1 x44 +1 x14 >= 0 ;
+1 x44 -1 x3 -1 x14 >= -1 ;
-1 x35 +1 x2 >= 0 ;
-1 x35 +1 x15 >= 0 ;
+1 x35 -1 x2 -1 x15 >= -1 ;
-1 x26 +1 x1 >= 0 ;
-1 x26 +1 x16 >= 0 ;
+1 x26 -1 x1 -1 x16 >= -1 ;
+1 x297 -1 x81 = 0 ;
+2 x177 +1 x287 -1 x72 -1 x166 -1 x297 = 0 ;
+2 x167 +1 x277 -1 x63 -1 x156 -1 x287 = 0 ;
+2 x157 +1 x267 -1 x54 -1 x146 -1 x277 = 0 ;
+2 x147 +1 x257 -1 x45 -1 x136 -1 x267 = 0 ;
+2 x137 +1 x247 -1 x36 -1 x126 -1 x257 = 0 ;
+2 x127 +1 x237 -1 x27 -1 x247 = 0 ;
+1 x237 -1 x347 = 0 ;
-1 x81 +1 x7 >= 0 ;
-1 x81 +1 x11 >= 0 ;
+1 x81 -1 x7 -1 x11 >= -1 ;
-1 x72 +1 x6 >= 0 ;
-1 x72 +1 x12 >= 0 ;
+1 x72 -1 x6 -1 x12 >= -1 ;
-1 x63 +1 x5 >= 0 ;
-1 x63 +1 x13 >= 0 ;
+1 x63 -1 x5 -1 x13 >= -1 ;
-1 x54 +1 x4 >= 0 ;
-1 x54 +1 x14 >= 0 ;
+1 x54 -1 x4 -1 x14 >= -1 ;
-1 x45 +1 x3 >= 0 ;
-1 x45 +1 x15 >= 0 ;
+1 x45 -1 x3 -1 x15 >= -1 ;
-1 x36 +1 x2 >= 0 ;
-1 x36 +1 x16 >= 0 ;
+1 x36 -1 x2 -1 x16 >= -1 ;
-1 x27 +1 x1 >= 0 ;
-1 x27 +1 x17 >= 0 ;
+1 x27 -1 x1 -1 x17 >= -1 ;
+1 x308 -1 x91 = 0 ;
+2 x188 +1 x298 -1 x82 -1 x177 -1 x308 = 0 ;
+2 x178 +1 x288 -1 x73 -1 x167 -1 x298 = 0 ;
+2 x168 +1 x278 -1 x64 -1 x157 -1 x288 = 0 ;
+2 x158 +1 x268 -1 x55 -1 x147 -1 x278 = 0 ;
+2 x148 +1 x258 -1 x46 -1 x137 -1 x268 = 0 ;
+2 x138 +1 x248 -1 x37 -1 x127 -1 x258 = 0 ;
+2 x128 +1 x238 -1 x28 -1 x248 = 0 ;
+1 x238 -1 x348 = 0 ;
-1 x91 +1 x8 >= 0 ;
-1 x91 +1 x11 >= 0 ;
+1 x91 -1 x8 -1 x11 >= -1 ;
-1 x82 +1 x7 >= 0 ;
-1 x82 +1 x12 >= 0 ;
+1 x82 -1 x7 -1 x12 >= -1 ;
-1 x73 +1 x6 >= 0 ;
-1 x73 +1 x13 >= 0 ;
+1 x73 -1 x6 -1 x13 >= -1 ;
-1 x64 +1 x5 >= 0 ;
-1 x64 +1 x14 >= 0 ;
+1 x64 -1 x5 -1 x14 >= -1 ;
-1 x55 +1 x4 >= 0 ;
-1 x55 +1 x15 >= 0 ;
+1 x55 -1 x4 -1 x15 >= -1 ;
-1 x46 +1 x3 >= 0 ;
-1 x46 +1 x16 >= 0 ;
+1 x46 -1 x3 -1 x16 >= -1 ;
-1 x37 +1 x2 >= 0 ;
-1 x37 +1 x17 >= 0 ;
+1 x37 -1 x2 -1 x17 >= -1 ;
-1 x28 +1 x1 >= 0 ;
-1 x28 +1 x18 >= 0 ;
+1 x28 -1 x1 -1 x18 >= -1 ;
+1 x319 -1 x101 = 0 ;
+2 x199 +1 x309 -1 x92 -1 x188 -1 x319 = 0 ;
+2 x189 +1 x299 -1 x83 -1 x178 -1 x309 = 0 ;
+2 x179 +1 x289 -1 x74 -1 x168 -1 x299 = 0 ;
+2 x169 +1 x279 -1 x65 -1 x158 -1 x289 = 0 ;
+2 x159 +1 x269 -1 x56 -1 x148 -1 x279 = 0 ;
+2 x149 +1 x259 -1 x47 -1 x138 -1 x269 = 0 ;
+2 x139 +1 x249 -1 x38 -1 x128 -1 x259 = 0 ;
+2 x129 +1 x239 -1 x29 -1 x249 = 0 ;
+1 x239 -1 x349 = 0 ;
-1 x101 +1 x9 >= 0 ;
-1 x101 +1 x11 >= 0 ;
+1 x101 -1 x9 -1 x11 >= -1 ;
-1 x92 +1 x8 >= 0 ;
-1 x92 +1 x12 >= 0 ;
+1 x92 -1 x8 -1 x12 >= -1 ;
-1 x83 +1 x7 >= 0 ;
-1 x83 +1 x13 >= 0 ;
+1 x83 -1 x7 -1 x13 >= -1 ;
-1 x74 +1 x6 >= 0 ;
-1 x74 +1 x14 >= 0 ;
+1 x74 -1 x6 -1 x14 >= -1 ;
-1 x65 +1 x5 >= 0 ;
-1 x65 +1 x15 >= 0 ;
+1 x65 -1 x5 -1 x15 >= -1 ;
-1 x56 +1 x4 >= 0 ;
-1 x56 +1 x16 >= 0 ;
+1 x56 -1 x4 -1 x16 >= -1 ;
-1 x47 +1 x3 >= 0 ;
-1 x47 +1 x17 >= 0 ;
+1 x47 -1 x3 -1 x17 >= -1 ;
-1 x38 +1 x2 >= 0 ;
-1 x38 +1 x18 >= 0 ;
+1 x38 -1 x2 -1 x18 >= -1 ;
-1 x29 +1 x1 >= 0 ;
-1 x29 +1 x19 >= 0 ;
+1 x29 -1 x1 -1 x19 >= -1 ;
+1 x330 -1 x111 = 0 ;
+2 x210 +1 x320 -1 x102 -1 x199 -1 x330 = 0 ;
+2 x200 +1 x310 -1 x93 -1 x189 -1 x320 = 0 ;
+2 x190 +1 x300 -1 x84 -1 x179 -1 x310 = 0 ;
+2 x180 +1 x290 -1 x75 -1 x169 -1 x300 = 0 ;
+2 x170 +1 x280 -1 x66 -1 x159 -1 x290 = 0 ;
+2 x160 +1 x270 -1 x57 -1 x149 -1 x280 = 0 ;
+2 x150 +1 x260 -1 x48 -1 x139 -1 x270 = 0 ;
+2 x140 +1 x250 -1 x39 -1 x129 -1 x260 = 0 ;
+2 x130 +1 x240 -1 x30 -1 x250 = 0 ;
+1 x240 -1 x350 = 0 ;
-1 x111 +1 x10 >= 0 ;
-1 x111 +1 x11 >= 0 ;
+1 x111 -1 x10 -1 x11 >= -1 ;
-1 x102 +1 x9 >= 0 ;
-1 x102 +1 x12 >= 0 ;
+1 x102 -1 x9 -1 x12 >= -1 ;
-1 x93 +1 x8 >= 0 ;
-1 x93 +1 x13 >= 0 ;
+1 x93 -1 x8 -1 x13 >= -1 ;
-1 x84 +1 x7 >= 0 ;
-1 x84 +1 x14 >= 0 ;
+1 x84 -1 x7 -1 x14 >= -1 ;
-1 x75 +1 x6 >= 0 ;
-1 x75 +1 x15 >= 0 ;
+1 x75 -1 x6 -1 x15 >= -1 ;
-1 x66 +1 x5 >= 0 ;
-1 x66 +1 x16 >= 0 ;
+1 x66 -1 x5 -1 x16 >= -1 ;
-1 x57 +1 x4 >= 0 ;
-1 x57 +1 x17 >= 0 ;
+1 x57 -1 x4 -1 x17 >= -1 ;
-1 x48 +1 x3 >= 0 ;
-1 x48 +1 x18 >= 0 ;
+1 x48 -1 x3 -1 x18 >= -1 ;
-1 x39 +1 x2 >= 0 ;
-1 x39 +1 x19 >= 0 ;
+1 x39 -1 x2 -1 x19 >= -1 ;
-1 x30 +1 x1 >= 0 ;
-1 x30 +1 x20 >= 0 ;
+1 x30 -1 x1 -1 x20 >= -1 ;
+2 x221 +1 x331 -1 x112 -1 x210 = 0 ;
+2 x211 +1 x321 -1 x103 -1 x200 -1 x331 = 0 ;
+2 x201 +1 x311 -1 x94 -1 x190 -1 x321 = 0 ;
+2 x191 +1 x301 -1 x85 -1 x180 -1 x311 = 0 ;
+2 x181 +1 x291 -1 x76 -1 x170 -1 x301 = 0 ;
+2 x171 +1 x281 -1 x67 -1 x160 -1 x291 = 0 ;
+2 x161 +1 x271 -1 x58 -1 x150 -1 x281 = 0 ;
+2 x151 +1 x261 -1 x49 -1 x140 -1 x271 = 0 ;
+2 x141 +1 x251 -1 x40 -1 x130 -1 x261 = 0 ;
+1 x251 -1 x351 = 0 ;
-1 x112 +1 x10 >= 0 ;
-1 x112 +1 x12 >= 0 ;
+1 x112 -1 x10 -1 x12 >= -1 ;
-1 x103 +1 x9 >= 0 ;
-1 x103 +1 x13 >= 0 ;
+1 x103 -1 x9 -1 x13 >= -1 ;
-1 x94 +1 x8 >= 0 ;
-1 x94 +1 x14 >= 0 ;
+1 x94 -1 x8 -1 x14 >= -1 ;
-1 x85 +1 x7 >= 0 ;
-1 x85 +1 x15 >= 0 ;
+1 x85 -1 x7 -1 x15 >= -1 ;
-1 x76 +1 x6 >= 0 ;
-1 x76 +1 x16 >= 0 ;
+1 x76 -1 x6 -1 x16 >= -1 ;
-1 x67 +1 x5 >= 0 ;
-1 x67 +1 x17 >= 0 ;
+1 x67 -1 x5 -1 x17 >= -1 ;
-1 x58 +1 x4 >= 0 ;
-1 x58 +1 x18 >= 0 ;
+1 x58 -1 x4 -1 x18 >= -1 ;
-1 x49 +1 x3 >= 0 ;
-1 x49 +1 x19 >= 0 ;
+1 x49 -1 x3 -1 x19 >= -1 ;
-1 x40 +1 x2 >= 0 ;
-1 x40 +1 x20 >= 0 ;
+1 x40 -1 x2 -1 x20 >= -1 ;
+2 x222 +1 x332 -1 x113 -1 x211 -1 x221 = 0 ;
+2 x212 +1 x322 -1 x104 -1 x201 -1 x332 = 0 ;
+2 x202 +1 x312 -1 x95 -1 x191 -1 x322 = 0 ;
+2 x192 +1 x302 -1 x86 -1 x181 -1 x312 = 0 ;
+2 x182 +1 x292 -1 x77 -1 x171 -1 x302 = 0 ;
+2 x172 +1 x282 -1 x68 -1 x161 -1 x292 = 0 ;
+2 x162 +1 x272 -1 x59 -1 x151 -1 x282 = 0 ;
+2 x152 +1 x262 -1 x50 -1 x141 -1 x272 = 0 ;
+1 x262 -1 x352 = 0 ;
-1 x113 +1 x10 >= 0 ;
-1 x113 +1 x13 >= 0 ;
+1 x113 -1 x10 -1 x13 >= -1 ;
-1 x104 +1 x9 >= 0 ;
-1 x104 +1 x14 >= 0 ;
+1 x104 -1 x9 -1 x14 >= -1 ;
-1 x95 +1 x8 >= 0 ;
-1 x95 +1 x15 >= 0 ;
+1 x95 -1 x8 -1 x15 >= -1 ;
-1 x86 +1 x7 >= 0 ;
-1 x86 +1 x16 >= 0 ;
+1 x86 -1 x7 -1 x16 >= -1 ;
-1 x77 +1 x6 >= 0 ;
-1 x77 +1 x17 >= 0 ;
+1 x77 -1 x6 -1 x17 >= -1 ;
-1 x68 +1 x5 >= 0 ;
-1 x68 +1 x18 >= 0 ;
+1 x68 -1 x5 -1 x18 >= -1 ;
-1 x59 +1 x4 >= 0 ;
-1 x59 +1 x19 >= 0 ;
+1 x59 -1 x4 -1 x19 >= -1 ;
-1 x50 +1 x3 >= 0 ;
-1 x50 +1 x20 >= 0 ;
+1 x50 -1 x3 -1 x20 >= -1 ;
+2 x223 +1 x333 -1 x114 -1 x212 -1 x222 = 0 ;
+2 x213 +1 x323 -1 x105 -1 x202 -1 x333 = 0 ;
+2 x203 +1 x313 -1 x96 -1 x192 -1 x323 = 0 ;
+2 x193 +1 x303 -1 x87 -1 x182 -1 x313 = 0 ;
+2 x183 +1 x293 -1 x78 -1 x172 -1 x303 = 0 ;
+2 x173 +1 x283 -1 x69 -1 x162 -1 x293 = 0 ;
+2 x163 +1 x273 -1 x60 -1 x152 -1 x283 = 0 ;
+1 x273 -1 x353 = 0 ;
-1 x114 +1 x10 >= 0 ;
-1 x114 +1 x14 >= 0 ;
+1 x114 -1 x10 -1 x14 >= -1 ;
-1 x105 +1 x9 >= 0 ;
-1 x105 +1 x15 >= 0 ;
+1 x105 -1 x9 -1 x15 >= -1 ;
-1 x96 +1 x8 >= 0 ;
-1 x96 +1 x16 >= 0 ;
+1 x96 -1 x8 -1 x16 >= -1 ;
-1 x87 +1 x7 >= 0 ;
-1 x87 +1 x17 >= 0 ;
+1 x87 -1 x7 -1 x17 >= -1 ;
-1 x78 +1 x6 >= 0 ;
-1 x78 +1 x18 >= 0 ;
+1 x78 -1 x6 -1 x18 >= -1 ;
-1 x69 +1 x5 >= 0 ;
-1 x69 +1 x19 >= 0 ;
+1 x69 -1 x5 -1 x19 >= -1 ;
-1 x60 +1 x4 >= 0 ;
-1 x60 +1 x20 >= 0 ;
+1 x60 -1 x4 -1 x20 >= -1 ;
+2 x224 +1 x334 -1 x115 -1 x213 -1 x223 = 0 ;
+2 x214 +1 x324 -1 x106 -1 x203 -1 x334 = 0 ;
+2 x204 +1 x314 -1 x97 -1 x193 -1 x324 = 0 ;
+2 x194 +1 x304 -1 x88 -1 x183 -1 x314 = 0 ;
+2 x184 +1 x294 -1 x79 -1 x173 -1 x304 = 0 ;
+2 x174 +1 x284 -1 x70 -1 x163 -1 x294 = 0 ;
+1 x284 -1 x354 = 0 ;
-1 x115 +1 x10 >= 0 ;
-1 x115 +1 x15 >= 0 ;
+1 x115 -1 x10 -1 x15 >= -1 ;
-1 x106 +1 x9 >= 0 ;
-1 x106 +1 x16 >= 0 ;
+1 x106 -1 x9 -1 x16 >= -1 ;
-1 x97 +1 x8 >= 0 ;
-1 x97 +1 x17 >= 0 ;
+1 x97 -1 x8 -1 x17 >= -1 ;
-1 x88 +1 x7 >= 0 ;
-1 x88 +1 x18 >= 0 ;
+1 x88 -1 x7 -1 x18 >= -1 ;
-1 x79 +1 x6 >= 0 ;
-1 x79 +1 x19 >= 0 ;
+1 x79 -1 x6 -1 x19 >= -1 ;
-1 x70 +1 x5 >= 0 ;
-1 x70 +1 x20 >= 0 ;
+1 x70 -1 x5 -1 x20 >= -1 ;
+2 x225 +1 x335 -1 x116 -1 x214 -1 x224 = 0 ;
+2 x215 +1 x325 -1 x107 -1 x204 -1 x335 = 0 ;
+2 x205 +1 x315 -1 x98 -1 x194 -1 x325 = 0 ;
+2 x195 +1 x305 -1 x89 -1 x184 -1 x315 = 0 ;
+2 x185 +1 x295 -1 x80 -1 x174 -1 x305 = 0 ;
+1 x295 -1 x355 = 0 ;
-1 x116 +1 x10 >= 0 ;
-1 x116 +1 x16 >= 0 ;
+1 x116 -1 x10 -1 x16 >= -1 ;
-1 x107 +1 x9 >= 0 ;
-1 x107 +1 x17 >= 0 ;
+1 x107 -1 x9 -1 x17 >= -1 ;
-1 x98 +1 x8 >= 0 ;
-1 x98 +1 x18 >= 0 ;
+1 x98 -1 x8 -1 x18 >= -1 ;
-1 x89 +1 x7 >= 0 ;
-1 x89 +1 x19 >= 0 ;
+1 x89 -1 x7 -1 x19 >= -1 ;
-1 x80 +1 x6 >= 0 ;
-1 x80 +1 x20 >= 0 ;
+1 x80 -1 x6 -1 x20 >= -1 ;
+2 x226 +1 x336 -1 x117 -1 x215 -1 x225 = 0 ;
+2 x216 +1 x326 -1 x108 -1 x205 -1 x336 = 0 ;
+2 x206 +1 x316 -1 x99 -1 x195 -1 x326 = 0 ;
+2 x196 +1 x306 -1 x90 -1 x185 -1 x316 = 0 ;
+1 x306 -1 x356 = 0 ;
-1 x117 +1 x10 >= 0 ;
-1 x117 +1 x17 >= 0 ;
+1 x117 -1 x10 -1 x17 >= -1 ;
-1 x108 +1 x9 >= 0 ;
-1 x108 +1 x18 >= 0 ;
+1 x108 -1 x9 -1 x18 >= -1 ;
-1 x99 +1 x8 >= 0 ;
-1 x99 +1 x19 >= 0 ;
+1 x99 -1 x8 -1 x19 >= -1 ;
-1 x90 +1 x7 >= 0 ;
-1 x90 +1 x20 >= 0 ;
+1 x90 -1 x7 -1 x20 >= -1 ;
+2 x227 +1 x337 -1 x118 -1 x216 -1 x226 = 0 ;
+2 x217 +1 x327 -1 x109 -1 x206 -1 x337 = 0 ;
+2 x207 +1 x317 -1 x100 -1 x196 -1 x327 = 0 ;
+1 x317 -1 x357 = 0 ;
-1 x118 +1 x10 >= 0 ;
-1 x118 +1 x18 >= 0 ;
+1 x118 -1 x10 -1 x18 >= -1 ;
-1 x109 +1 x9 >= 0 ;
-1 x109 +1 x19 >= 0 ;
+1 x109 -1 x9 -1 x19 >= -1 ;
-1 x100 +1 x8 >= 0 ;
-1 x100 +1 x20 >= 0 ;
+1 x100 -1 x8 -1 x20 >= -1 ;
+2 x228 +1 x338 -1 x119 -1 x217 -1 x227 = 0 ;
+2 x218 +1 x328 -1 x110 -1 x207 -1 x338 = 0 ;
+1 x328 -1 x358 = 0 ;
-1 x119 +1 x10 >= 0 ;
-1 x119 +1 x19 >= 0 ;
+1 x119 -1 x10 -1 x19 >= -1 ;
-1 x110 +1 x9 >= 0 ;
-1 x110 +1 x20 >= 0 ;
+1 x110 -1 x9 -1 x20 >= -1 ;
+2 x229 +1 x339 -1 x120 -1 x218 -1 x228 = 0 ;
+1 x339 -1 x359 = 0 ;
-1 x120 +1 x10 >= 0 ;
-1 x120 +1 x20 >= 0 ;
+1 x120 -1 x10 -1 x20 >= -1 ;
+1 x229 -1 x360 = 0 ;
